NAME : M-n101-k10
COMMENT : (Christophides et al, No of trucks: 10, Optimal value: 820)
TYPE : CVRP
DIMENSION : 11
EDGE_WEIGHT_TYPE : EUC_2D
CAPACITY : 200
NODE_COORD_SECTION
1 40 50
2 42 65
3 15 75
4 20 50
5 8 45
6 32 30
7 40 15
8 35 5
9 87 30
10 70 58
11 60 80
DEMAND_SECTION
1 0 
2 10
3 30
4 10
5 10
6 10
7 20
8 20
9 20
10 10
11 10
DEPOT_SECTION
1
-1
EOF